1 100 405 115
0 40.0 50.0 0.0 0.0 0 1236
2 45.0 68.0 90.0 10.0 850 1030 1 5
3 45.0 70.0 90.0 30.0 758 938 2 5
4 42.0 66.0 90.0 10.0 16 196 3 5
5 42.0 68.0 90.0 10.0 665 845 4 5
6 42.0 65.0 90.0 10.0 15 195 5 5
7 40.0 69.0 90.0 20.0 572 752 6 10
8 40.0 66.0 90.0 20.0 108 288 7 10
9 38.0 68.0 90.0 20.0 200 380 8 10
10 38.0 70.0 90.0 10.0 480 660 9 10
11 35.0 66.0 90.0 10.0 294 474 10 10
12 35.0 69.0 90.0 10.0 387 567 11 15
13 25.0 85.0 90.0 20.0 597 777 12 15
14 22.0 75.0 90.0 30.0 30 210 13 15
15 22.0 85.0 90.0 10.0 504 684 14 15
16 20.0 80.0 90.0 40.0 317 497 15 15
17 20.0 85.0 90.0 40.0 412 592 16 5
18 18.0 75.0 90.0 20.0 34 214 17 5
19 15.0 75.0 90.0 20.0 127 307 18 5
20 15.0 80.0 90.0 10.0 222 402 19 5
21 30.0 50.0 90.0 10.0 10 190 20 5
22 30.0 52.0 90.0 20.0 850 1030 21 10
23 28.0 52.0 90.0 20.0 758 938 22 10
24 28.0 55.0 90.0 10.0 665 845 23 10
25 25.0 50.0 90.0 10.0 15 195 24 10
26 25.0 52.0 90.0 40.0 107 287 25 10
27 25.0 55.0 90.0 10.0 572 752 26 15
28 23.0 52.0 90.0 10.0 199 379 27 15
29 23.0 55.0 90.0 20.0 480 660 28 15
30 20.0 50.0 90.0 10.0 292 472 29 15
31 20.0 55.0 90.0 10.0 387 567 30 15
32 10.0 35.0 90.0 20.0 129 309 31 5
33 10.0 40.0 90.0 30.0 31 211 32 5
34 8.0 40.0 90.0 40.0 33 213 33 5
35 8.0 45.0 90.0 20.0 694 874 34 5
36 5.0 35.0 90.0 10.0 224 404 35 5
37 5.0 45.0 90.0 10.0 601 781 36 10
38 2.0 40.0 90.0 20.0 319 499 37 10
39 0.0 40.0 90.0 30.0 411 591 38 10
40 0.0 45.0 90.0 20.0 506 686 39 10
41 35.0 30.0 90.0 10.0 203 383 40 10
42 35.0 32.0 90.0 10.0 111 291 41 15
43 33.0 32.0 90.0 20.0 19 199 42 15
44 33.0 35.0 90.0 10.0 16 196 43 15
45 32.0 30.0 90.0 10.0 296 476 44 15
46 30.0 30.0 90.0 10.0 481 661 45 15
47 30.0 32.0 90.0 30.0 389 569 46 5
48 30.0 35.0 90.0 10.0 947 1127 47 5
49 28.0 30.0 90.0 10.0 573 753 48 5
50 28.0 35.0 90.0 10.0 944 1124 49 5
51 26.0 32.0 90.0 10.0 758 938 50 5
52 25.0 30.0 90.0 10.0 666 846 51 10
53 25.0 35.0 90.0 10.0 851 1031 52 10
54 44.0 5.0 90.0 20.0 227 407 53 10
55 42.0 10.0 90.0 40.0 132 312 54 10
56 42.0 15.0 90.0 10.0 37 217 55 10
57 40.0 5.0 90.0 30.0 321 501 56 15
58 40.0 15.0 90.0 40.0 35 215 57 15
59 38.0 5.0 90.0 30.0 413 593 58 15
60 38.0 15.0 90.0 10.0 606 786 59 15
61 35.0 5.0 90.0 20.0 506 686 60 15
62 50.0 30.0 90.0 10.0 481 661 61 5
63 50.0 35.0 90.0 20.0 200 380 62 5
64 50.0 40.0 90.0 50.0 105 285 63 5
65 48.0 30.0 90.0 10.0 573 753 64 5
66 48.0 40.0 90.0 10.0 13 193 65 5
67 47.0 35.0 90.0 10.0 761 941 66 10
68 47.0 40.0 90.0 10.0 12 192 67 10
69 45.0 30.0 90.0 10.0 666 846 68 10
70 45.0 35.0 90.0 10.0 853 1033 69 10
71 95.0 30.0 90.0 30.0 332 512 70 10
72 95.0 35.0 90.0 20.0 237 417 71 15
73 53.0 30.0 90.0 10.0 388 568 72 15
74 92.0 30.0 90.0 10.0 425 605 73 15
75 53.0 35.0 90.0 50.0 293 473 74 15
76 45.0 65.0 90.0 20.0 943 1123 75 15
77 90.0 35.0 90.0 10.0 142 322 76 5
78 88.0 30.0 90.0 10.0 519 699 77 5
79 88.0 35.0 90.0 20.0 50 230 78 5
80 87.0 30.0 90.0 10.0 610 790 79 5
81 85.0 25.0 90.0 10.0 705 885 80 5
82 85.0 35.0 90.0 30.0 47 227 81 10
83 75.0 55.0 90.0 20.0 305 485 82 10
84 72.0 55.0 90.0 10.0 212 392 83 10
85 70.0 58.0 90.0 20.0 401 581 84 10
86 68.0 60.0 90.0 30.0 494 674 85 10
87 66.0 55.0 90.0 10.0 116 296 86 15
88 65.0 55.0 90.0 20.0 25 205 87 15
89 65.0 60.0 90.0 30.0 587 767 88 15
90 63.0 58.0 90.0 10.0 680 860 89 15
91 60.0 55.0 90.0 10.0 20 200 90 15
92 60.0 60.0 90.0 10.0 773 953 91 5
93 67.0 85.0 90.0 20.0 315 495 92 5
94 65.0 85.0 90.0 40.0 407 587 93 5
95 65.0 82.0 90.0 10.0 221 401 94 5
96 62.0 80.0 90.0 30.0 128 308 95 5
97 60.0 80.0 90.0 10.0 36 216 96 10
98 60.0 85.0 90.0 30.0 502 682 97 10
99 58.0 75.0 90.0 20.0 30 210 98 10
100 55.0 80.0 90.0 10.0 692 872 99 10
101 55.0 85.0 90.0 20.0 597 777 100 10